0000000000000000
0000000000000000
0000111000111100
0001111100111100
0000111100111100
0000111110111100
0000011110111000
0000111111111000
0001111111111000
0001111111110000
0001110111110000
0001110011110000
0001110011111000
0001110001111000
0001110001111000
0000000000000000
